n = 28;
k = 3;
roles = [
{f, m},
{g, d},
{m, d},
{m, d},
{m, f},
{f, g},
{m, g},
{m, f},
{g, d},
{g, d},
{f, g},
{d, m},
{g, f},
{f, g},
{m, f},
{d, g},
{d, f},
{f, d},
{d, f},
{f, g},
{d, g},
{f, g},
{f, m},
{g, d},
{f, d},
{f, g},
{m, d},
{m, f}
];
num_pairs = 2;
player1 = [28, 24];
player2 = [8, 9];
